proyfinal/src/viki/013/experimentInOfficeAgust.take6.output/524ab45b-2408-4361-8935-9db1d657fca1.als.dat
{'cnf.clauses': '118081',
 'cnf.totvars': '69608',
 'conflict literals': '17',
 'conflicts': '12',
 'decisions': '1463',
 'memused.mb': '16.96',
 'outcome': 'UNSAT',
 'propagations': '35305',
 'restarts': '1',
 'solver.msecs': 27,
 'task.msecs': 138}
