proyfinal/src/viki/013/experimentInOfficeAgust.take6.output/524ab45b-2408-4361-8935-9db1d657fca1.als.out
Reading from standard input... Use '--help' for help.
============================[ Problem Statistics ]=============================
|                                                                             |
|  Number of variables:         69608                                         |
|  Number of clauses:          118081                                         |
|  Parse time:                   0.02 s                                       |
|                                                                             |
============================[ Search Statistics ]==============================
| Conflicts |          ORIGINAL         |          LEARNT          | Progress |
|           |    Vars  Clauses Literals |    Limit  Clauses Lit/Cl |          |
===============================================================================
===============================================================================
restarts              : 1
conflicts             : 12             (430 /sec)
decisions             : 1463           (0.00 % random) (52467 /sec)
propagations          : 35305          (1266138 /sec)
conflict literals     : 17             (10.53 % deleted)
Memory used           : 16.96 MB
CPU time              : 0.027884 s

UNSATISFIABLE
